 $CONTRL SCFTYP=RHF DFTTYP=B3LYP RUNTYP=sadpoint MULT=1 $END
 $SYSTEM TIMLIM=5000 MEMORY=2000000 $END
 $BASIS  GBASIS=N31 NGAUSS=6 ndfunc=1 npfunc=1 $END
 $STATPT HSSEND=.T. HESS=read ifolow=1 $END                ! ifolow = the mode along which the energy is maximazed (other mode are minimized)
 $FORCE NVIB=2 RDHESS=.f. $END
 $SCF DIIS=.T. SOSCF=.F. $END
 $DATA                                                     ! Paste geometry, where we calculate hessian
  poisk TS CH3-CH2-CH2F 
 C1  
 C   6.0  -0.7499579268   0.2184802308   0.2848129992
 C   6.0  -0.7815421104   1.5246965491  -0.1219865188
 C   6.0   0.4101907943  -0.7133943618   0.0075707680
 H   1.0  -1.6866125194  -0.2374070040   0.6033333444
 H   1.0  -1.6951152466   2.1081510709  -0.0975431353
 H   1.0   0.0618868396   1.9826919463  -0.6288364415
 H   1.0   0.1829837209  -1.4063463981  -0.8127637063
 H   1.0   1.3098106153  -0.1543135906  -0.2715547122
 H   1.0   0.6603014900  -1.3252117619   0.8818085616
 H   1.0  -0.3950185481   1.0994597337   1.3133523290
 F   9.0  -0.2143635079   2.1305613780   1.5871759200
 $END
 $HESS                                                     ! Paste calculated hessian from *.dat
 $END
